# Solution for model count
# Objective value = 10
z#1 0
z#2 1
z#3 0
z#4 0
z#5 0
z#6 0
z#7 0
z#8 1
z#9 1
z#10 0
z#11 1
z#12 1
z#13 1
z#14 1
z#15 0
z#16 0
z#17 1
z#18 1
z#19 0
z#20 0
z#21 0
z#22 0
z#23 1
z#24 0
x#24 0
x#23 3117
x#22 0
x#21 0
x#20 0
x#19 0
x#18 337
x#17 178
x#16 0
x#15 0
x#14 120
x#13 139
x#12 130
x#11 736
x#10 0
x#9 3127
x#8 1378
x#7 0
x#6 0
x#5 0
x#4 0
x#3 0
x#2 738
x#1 0
